WARNING: for repeatability, setting FPU to use double precision
============================[ Problem Statistics ]=============================
|                                                                             |
|  Number of variables:            50                                         |
|  Number of clauses:             218                                         |
|  Parse time:                   0.00 s                                       |
|                                                                             |
============================[ Search Statistics ]==============================
| Conflicts |          ORIGINAL         |          LEARNT          | Progress |
|           |    Vars  Clauses Literals |    Limit  Clauses Lit/Cl |          |
===============================================================================
===============================================================================
restarts              : 1
conflicts             : 93             (370518 /sec)
decisions             : 101            (0.00 % random) (402390 /sec)
propagations          : 1273           (5071713 /sec)
conflict literals     : 328            (18.41 % deleted)
Memory used           : 20.00 MB
CPU time              : 0.000251 s

UNSATISFIABLE
